s td 15 56 70
b 1 1 6 9 10 13 14 15 17 20 21 22 23 27 28 29 30 31 33 34 35 37 39 43 45 48 49 52 56 57 60 61 66 68 70
b 2 4 5 6 8 9 10 11 12 13 14 15 16 17 18 19 20 21 22 23 25 26 27 28 29 30 31 33 34 35 37 38 39 40 41 43 44 45 46 48 49 50 51 52 53 55 56 57 58 60 61 62 63 64 66 68 70
b 3 3 4 5 6 8 9 10 11 12 13 14 15 16 17 18 19 20 22 23 25 26 27 28 29 30 31 33 34 35 37 38 39 40 41 43 44 45 46 48 49 50 51 52 53 55 56 57 58 60 61 62 63 64 66 68 70
b 4 3 4 5 6 8 9 10 11 12 13 14 15 16 17 18 19 20 22 23 25 26 27 28 29 30 31 33 34 35 37 38 39 41 42 43 44 45 46 48 49 50 51 52 53 55 56 57 58 60 61 62 63 64 66 68 70
b 5 2 3 4 5 6 8 10 11 12 13 14 15 16 17 18 19 20 22 23 25 26 27 28 29 30 31 33 34 35 37 38 39 41 42 43 44 45 46 48 49 50 51 52 53 55 56 57 58 60 61 62 63 64 66 68 70
b 6 2 3 4 5 6 8 10 11 12 13 14 15 16 17 18 19 20 22 23 25 26 27 28 30 31 33 34 35 37 38 39 41 42 43 44 45 46 47 48 49 50 51 52 53 55 56 57 58 60 61 62 63 64 68 70
b 7 2 4 5 6 8 10 11 12 13 14 15 16 17 18 19 20 22 23 25 26 27 28 30 31 34 35 37 38 39 41 42 43 44 45 46 47 48 49 50 52 53 55 56 57 58 59 60 61 62 63 64 68 70
b 8 2 4 5 8 10 11 12 13 14 15 16 17 18 19 20 22 23 25 26 27 28 30 31 32 34 35 37 38 39 41 42 43 44 45 46 47 48 49 50 53 55 57 58 59 60 61 62 63 64 68 70
b 9 5 8 12 14 15 16 17 19 20 22 24 25 26 28 30 31 32 37 38 39 41 42 43 44 45 47 49 53 58 59 60 62 68 70
b 10 2 3 4 10 11 12 15 18 19 20 27 29 30 33 35 39 41 42 48 50 51 55 57 58 61 64 65 70
b 11 4 5 6 8 9 10 11 12 13 14 15 16 17 18 19 20 21 22 23 25 26 27 28 29 30 31 33 34 35 36 37 38 39 40 41 43 44 46 48 49 50 51 52 53 55 56 57 58 60 61 62 63 64 66 68 70
b 12 4 5 6 8 9 10 11 12 13 14 15 16 17 18 19 20 21 22 23 25 26 27 28 29 30 31 33 34 35 36 37 38 39 40 41 43 44 46 48 49 50 51 52 53 55 56 57 60 61 62 63 64 67 68 70
b 13 4 5 6 8 9 10 11 12 13 14 15 16 17 18 19 20 21 22 23 25 26 27 29 30 31 33 34 35 36 37 38 39 40 41 43 44 46 49 50 51 52 53 55 56 57 60 62 63 64 67 68 69 70
b 14 4 5 6 8 9 10 12 13 15 16 18 19 20 21 22 25 26 27 31 33 34 35 37 38 39 40 41 44 46 50 51 52 53 54 55 57 60 62 63 64 67 68 69 70
b 15 4 5 6 7 9 10 12 13 15 16 19 20 21 25 26 27 31 33 34 35 37 38 39 40 44 50 51 52 54 57 60 63 67 68 70
1 2
2 3
2 11
3 4
4 5
5 6
5 10
6 7
7 8
8 9
11 12
12 13
13 14
14 15
